120
150
22
49
41
24
35
29
71
23
84
20
21
49
84
68
36
82
26
42
93
77
71
37
92
21
44
31
41
33
77
36
37
79
71
79
88
21
41
53
95
63
35
52
88
70
76
40
31
79
53
97
69
34
47
67
84
37
93
29
28
26
67
57
24
53
71
84
24
24
47
55
24
24
57
93
31
49
70
29
67
24
77
73
84
36
92
45
70
80
40
67
43
35
49
78
71
57
93
33
37
80
76
93
57
84
42
24
75
84
39
49
100
55
95
98
51
92
68
84
67
82
